n = 21;
k = 4;
roles = [
{m, g},
{g, f},
{d, f},
{f, m},
{f, m},
{g, d},
{d, m},
{m, f},
{m, g},
{m, f},
{f, d},
{f, m},
{m, f},
{m, g},
{f, m},
{f, g},
{f, d},
{g, f},
{f, m},
{f, d},
{g, d}
];
num_pairs = 1;
player1 = [7];
player2 = [15];
